30845
1 1 1 1 1 0 1 1 1 0 1 1 0 0 0 0 0 0 1 1 0 1 1 1 0 0 0 0 0 0 
18 19 21 22 2 6 21 0 22 0 4 19 10 1 19 18 1 10 22 0 18 21 23 0 10 18 22 19 4 2 19 19 4 21 18 6 8 8 21 21 18 8 6 4 8 19 3 21 19 10 0 22 2 21 8 6 11 8 18 7 4 0 7 8 3 11 23 19 19 11 18 6 19 8 23 23 10 23 8 22 10 0 8 7 4 10 6 2 22 7 11 6 7 11 2 3 11 6 0 11 19 21 11 18 4 0 4 21 22 3 19 4 18 6 11 8 11 7 0 8 8 11 0 19 4 21 2 11 19 0 11 21 11 10 23 8 3 3 11 10 11 22 11 11 11 2 21 21 18 7 0 0 23 0 8 11 2 21 3 3 1 0 10 2 23 18 23 4 3 21 1 8 19 10 4 2 0 10 4 10 2 21 2 19 11 8 11 23 0 21 2 21 6 4 7 6 7 21 10 19 
